Sat 19 May 19:13:37 CEST 2018
CPXPARAM_TimeLimit                               45
CPXPARAM_Threads                                 1
CPXPARAM_MIP_Strategy_CallbackReducedLP          0
Tried aggregator 6 times.
MIP Presolve eliminated 1874 rows and 1591 columns.
MIP Presolve modified 634 coefficients.
Aggregator did 1372 substitutions.
Reduced MIP has 2420 rows, 2494 columns, and 6400 nonzeros.
Reduced MIP has 2282 binaries, 10 generals, 0 SOSs, and 550 indicators.
Presolve time = 0.02 sec. (27.79 ticks)
Probing time = 0.04 sec. (34.64 ticks)
Cover probing fixed 0 vars, tightened 8 bounds.
Tried aggregator 5 times.
MIP Presolve modified 48 coefficients.
Aggregator did 1164 substitutions.
Reduced MIP has 1256 rows, 1330 columns, and 4072 nonzeros.
Reduced MIP has 1118 binaries, 212 generals, 0 SOSs, and 550 indicators.
Presolve time = 0.01 sec. (11.86 ticks)
Probing time = 0.02 sec. (13.89 ticks)
Tried aggregator 1 time.
Reduced MIP has 1256 rows, 1330 columns, and 4072 nonzeros.
Reduced MIP has 1118 binaries, 212 generals, 0 SOSs, and 550 indicators.
Presolve time = 0.00 sec. (3.87 ticks)
Probing time = 0.00 sec. (3.34 ticks)
Clique table members: 15063.
MIP emphasis: balance optimality and feasibility.
MIP search method: dynamic search.
Parallel mode: none, using 1 thread.
Root relaxation solution time = 0.00 sec. (3.92 ticks)

        Nodes                                         Cuts/
   Node  Left     Objective  IInf  Best Integer    Best Bound    ItCnt     Gap

      0     0        2.0000   500                      2.0000      103         
      0     0        2.0000   466                Cliques: 414      318         
      0     0        2.0000   373                Cliques: 414      463         
      0     0        2.0000   265                Cliques: 414      679         
      0     0        2.0000   263                Cliques: 414     1057         
      0     0        2.0000   238                   Cuts: 414     1260         
      0     0        2.0000   217                   Cuts: 414     1322         
      0     0        2.0000   106                    Cuts: 98     1397         
      0     0        2.0000   246                   Cuts: 133     1488         
*     0+    0                           15.0000        2.0000            86.67%
*     0+    0                            7.0000        2.0000            71.43%

Repeating presolve.
Tried aggregator 1 time.
MIP Presolve eliminated 672 rows and 702 columns.
MIP Presolve modified 100 coefficients.
Reduced MIP has 646 rows, 626 columns, and 1868 nonzeros.
Reduced MIP has 540 binaries, 86 generals, 0 SOSs, and 146 indicators.
Presolve time = 0.00 sec. (2.51 ticks)
Probing time = 0.01 sec. (4.90 ticks)
Tried aggregator 2 times.
MIP Presolve eliminated 96 rows and 96 columns.
Aggregator did 48 substitutions.
Reduced MIP has 502 rows, 482 columns, and 1580 nonzeros.
Reduced MIP has 396 binaries, 86 generals, 0 SOSs, and 146 indicators.
Presolve time = 0.00 sec. (1.88 ticks)
Probing time = 0.00 sec. (2.31 ticks)
Tried aggregator 1 time.
Reduced MIP has 502 rows, 482 columns, and 1580 nonzeros.
Reduced MIP has 396 binaries, 86 generals, 0 SOSs, and 146 indicators.
Presolve time = 0.00 sec. (1.46 ticks)
Represolve time = 0.04 sec. (46.65 ticks)
Probing time = 0.00 sec. (2.25 ticks)
Clique table members: 1101.
MIP emphasis: balance optimality and feasibility.
MIP search method: dynamic search.
Parallel mode: none, using 1 thread.
Root relaxation solution time = 0.00 sec. (2.72 ticks)

        Nodes                                         Cuts/
   Node  Left     Objective  IInf  Best Integer    Best Bound    ItCnt     Gap

*     0+    0                            7.0000        2.0000            71.43%
      0     0        2.0000   192        7.0000        2.0000     1571   71.43%
      0     0        2.0000   130        7.0000     Cuts: 225     1673   71.43%
      0     0        2.0000   108        7.0000     Cuts: 225     1751   71.43%
      0     0        2.0000   122        7.0000     Cuts: 187     1963   71.43%
      0     0        2.0000   112        7.0000     Cuts: 225     1997   71.43%
      0     0        2.0000   119        7.0000     Cuts: 124     2192   71.43%
      0     2        2.0000   119        7.0000        2.0000     2192   71.43%
Elapsed time = 0.94 sec. (1160.69 ticks, tree = 0.01 MB, solutions = 2)
*    30+    8                            6.0000        2.0000            66.67%

Clique cuts applied:  198
Implied bound cuts applied:  107
Zero-half cuts applied:  45

Root node processing (before b&c):
  Real time             =    0.94 sec. (1160.88 ticks)
Sequential b&c:
  Real time             =    0.05 sec. (54.31 ticks)
                          ------------
Total (root+branch&cut) =    0.99 sec. (1215.18 ticks)
   | W
 L | 0 1 2 3 
------------
 0 | 8 8 9 9 
 1 | 8 8 9 9 
 2 | 6 6 7 7 
 3 | 6 6 7 7 
 4 | 2 3 5 4 
 5 | 1 . 5 4 
 6 | . . . . 
 7 | . . . . 
 8 | . . . . 
 9 | . . . . 
10 | . . . . 
11 | . . . . 
12 | . . . . 
13 | . . . . 
14 | . . . . 

Boxes' corners:      (w,l)
    Box 1 is at 
        top left     (0,5)
        bottom right (0,5)

    Box 2 is at 
        top left     (0,4)
        bottom right (0,4)

    Box 3 is at 
        top left     (1,4)
        bottom right (1,4)

    Box 4 is at 
        top left     (3,4)
        bottom right (3,5)

    Box 5 is at 
        top left     (2,4)
        bottom right (2,5)

    Box 6 is at 
        top left     (0,2)
        bottom right (1,3)

    Box 7 is at 
        top left     (2,2)
        bottom right (3,3)

    Box 8 is at 
        top left     (0,0)
        bottom right (1,1)

    Box 9 is at 
        top left     (2,0)
        bottom right (3,1)

    Roll length used: 6
In 1.01 seconds
